806
[63, 64, 55, 50, 66, 47, 10, 53, 61, 32, 11, 20, 33, 16, 42, 40, 5, 41, 17, 3, 1, 6, 18, 31, 2, 7, 25, 48, 54, 27, 13, 19, 29, 43, 67, 8, 39, 26, 45, 60, 38, 44, 24, 59, 51, 9, 4, 52, 49, 57, 36, 46, 15, 0, 35, 22, 37, 21, 62, 56, 14, 23, 65, 58, 68, 30, 12, 28, 69, 34]
